 Run started: Fri, 04 Feb 2022 10:13:09 +0000

 ******************************* User Parameters *******************************
iprint        : 2              # verbosity control (I)
task          : MAGRES         # type of calculation (S)
optstrategy   : speed          # optimization strategy (S)
xcfunctional  : pbesol         # exchange-correlation functional (S)
cutoffenergy  : 900.0000000 ev # maximum energy of planewaves in basis set (P)
numdumpcycles : 0              # frequency of wavefunction dumps (I)
magrestask    : NMR            # MAGRES run type (S)

 |           N   N    M   M    RRRR                |
 |           NN  N    MM MM    R   R               |
 |           N N N    M M M    RRRR                |
 |           N  NN    M   M    R  R                |
 |           N   N    M   M    R   R               |
 | Welcome to Materials Studio CASTEP-NMR          |
 | Authors:                                        |
 | J.R. Yates, C.J. Pickard, F. Mauri              |
 | Contributors:                                   |
 | T.F.G. Green, S.A. Joyce, R.T. Strong,          |
 | B-C. Shih                                       |
 | Copyright (c) 2004 - 2021                       |
 | Please cite the appropriate publications in all |
 | work arising from your use of CASTEP NMR.       |
 | For NMR Shielding Tensors cite:                 |
 |    "All-electron magnetic response with         |
 |    pseudopotentials: NMR chemical shifts",      |
 |    C. J. Pickard, F. Mauri;                     |
 |    Physical Review B63 245101 (2001), and       |
 |    "Calculation of NMR Chemical Shifts          |
 |    for extended systems using                   |
 |    Ultrasoft Pseudopotentials",                 |
 |    J. R. Yates, C. J. Pickard and F. Mauri      |
 |    Physical Review B76 024401 (2007)            |
 | For Electric Field Gradients cite:              |
 |   "Accurate First Principles Prediction of 17O  |
 |    NMR Parameters in SiO2: Assignment of the    |
 |    Zeolite Ferrierite Spectrum"                 |
 |    M. Profeta, F. Mauri and C. J. Pickard       |
 |    J. Amer. Chem. Soc. 125 541 (2003)           |
 | For Spin-Spin (J) Couplings cite:               |
 |   "A first principles theory of NMR J-coupling  |
 |   in solid-state systems"                       |
 |   S.A. Joyce, J.R. Yates, C.J. Pickard, F. Mauri|
 |   J. Chem. Phys. 127 204107 (2007)              |
 |   "Relativistic NMR J-coupling with ultrasoft   |
 |   pseudopotentials and the zeroth-order regular |
 |   approximation"                                |
 |   T.F.G. Green and J.R. Yates                   |
 |   J. Chem. Phys. 140 234106 (2014)              |

 Atomic calculation performed for O: 1s2 2s2 2p4

 Converged in 57 iterations to an ae energy of -2034.019 eV

    == Comparison of all-electron and pseudo eig ===
    ==         taken from descreening step.      ===
    == A more accurate error estimate is given   ===
    == by using the scf pseudo test -            ===
    == add [] to end of otfg string to activate  ===
    AE l  no    occ        eig (Ha)
    PS l  no               eig (Ha)         diff
    ae 0   2   2.000    -0.8749487920
    ps 0   2            -0.8749599405    -0.1115E-04
    ae 1   1   4.000    -0.3297966080
    ps 1   1            -0.3298023493    -0.5741E-05
   | Pseudopotential Report - Date of generation  4-02-2022   |
   | Element: O Ionic charge:  6.00 Level of theory: PBESOL   |
   | Atomic Solver: Koelling-Harmon                           |
   |               Reference Electronic Structure             |
   |         Orbital         Occupation         Energy        |
   |            2s              2.000           -0.875        |
   |            2p              4.000           -0.330        |
   |                 Pseudopotential Definition               |
   |        Beta     l      e      Rc     scheme   norm       |
   |          1      0   -0.875   1.100     qc      0         |
   |          2      0    0.250   1.100     qc      0         |
   |          3      1   -0.330   1.100     qc      0         |
   |          4      1    0.250   1.100     qc      0         |
   |         loc     2    0.000   1.100     pn      0         |
   | Augmentation charge Rinner = 0.769                       |
   | Partial core correction Rc = 0.769                       |
   | "2|1.1|17|20|23|20:21(qc=8)"                             |
   |      Author: Chris J. Pickard, Cambridge University      |

 Atomic calculation performed for Al: 1s2 2s2 2p6 3s2 3p1

 Converged in 55 iterations to an ae energy of -6590.489 eV

    == Comparison of all-electron and pseudo eig ===
    ==         taken from descreening step.      ===
    == A more accurate error estimate is given   ===
    == by using the scf pseudo test -            ===
    == add [] to end of otfg string to activate  ===
    AE l  no    occ        eig (Ha)
    PS l  no               eig (Ha)         diff
    ae 0   3   2.000    -0.2835226939
    ps 0   3            -0.2835236172    -0.9233E-06
    ae 1   2   1.000    -0.0988403377
    ps 1   2            -0.0988400873     0.2504E-06
   | Pseudopotential Report - Date of generation  4-02-2022   |
   | Element: Al Ionic charge:  3.00 Level of theory: PBESOL  |
   | Atomic Solver: Koelling-Harmon                           |
   |               Reference Electronic Structure             |
   |         Orbital         Occupation         Energy        |
   |            3s              2.000           -0.284        |
   |            3p              1.000           -0.099        |
   |                 Pseudopotential Definition               |
   |        Beta     l      e      Rc     scheme   norm       |
   |          1      0   -0.284   2.192     qc      0         |
   |          2      0    0.250   2.192     qc      0         |
   |          3      1   -0.099   2.192     qc      0         |
   |          4      1    0.250   2.192     qc      0         |
   |          5      2    0.000   2.000     qc      0         |
   |          6      2    0.250   2.000     qc      0         |
   |         loc     3    0.000   2.192     pn      0         |
   | Augmentation charge Rinner = 1.398                       |
   | Partial core correction Rc = 1.398                       |
   | "3|2.2|2.2|1.4|4|5|5|30:31:32U2U2"                       |
   |      Author: Chris J. Pickard, Cambridge University      |

 Pseudo atomic calculation performed for O 2s2 2p4

 Converged in 33 iterations to a total energy of -431.1291 eV

[...]

 Converged in 20 iterations to a total energy of -105.9172 eV
Initialising basis set.

Standard grid dimensions:  45  45  45
Fine grid dimensions:      45  45  45

 ************************************ Title ************************************

 ***************************** General Parameters ******************************

 output verbosity                               : verbose (2)
 write checkpoint data to                       : al2o3_xc-PBESOL_c-0900_k-5x5x5_nmr.check
 type of calculation                            : Magnetic Resonance
 stress calculation                             : off
 density difference calculation                 : off
 electron localisation func (ELF) calculation   : off
 Hirshfeld analysis                             : off
 polarisation (Berry phase) analysis            : off
 molecular orbital projected DOS                : off
 deltaSCF calculation                           : off
 unlimited duration calculation
 timing information                             : on
 write extra output files                       : on
 write final potential to formatted file        : off
 write final density to formatted file          : off
 write BibTeX reference list                    : on
 write OTFG pseudopotential files               : on
 write electrostatic potential file             : on
 write bands file                               : on
 checkpoint writing                             : both castep_bin and check files

 output         length unit                     : A
 output           mass unit                     : amu
 output           time unit                     : ps
 output         charge unit                     : e
 output           spin unit                     : hbar/2
 output         energy unit                     : eV
 output          force unit                     : eV/A
 output       velocity unit                     : A/ps
 output       pressure unit                     : GPa
 output     inv_length unit                     : 1/A
 output      frequency unit                     : cm-1
 output force constant unit                     : eV/A**2
 output         volume unit                     : A**3
 output   IR intensity unit                     : (D/A)**2/amu
 output         dipole unit                     : D
 output         efield unit                     : eV/A/e
 output        entropy unit                     : J/mol/K
 output    efield chi2 unit                     : pm/V

 wavefunctions paging                           : none
 random number generator seed                   : randomised (101309101)
 data distribution                              : optimal for this architecture
 optimization strategy                          : maximize speed(+++)

 *********************** Exchange-Correlation Parameters ***********************

 using functional                               : PBE for solids (2008)
 relativistic treatment                         : Koelling-Harmon
 DFT+D: Semi-empirical dispersion correction    : off

 ************************* Pseudopotential Parameters **************************

 pseudopotential representation                 : reciprocal space
 <beta|phi> representation                      : reciprocal space
 spin-orbit coupling                            : off

 **************************** Basis Set Parameters *****************************

 plane wave basis set cut-off                   :   900.0000   eV
 size of standard grid                          :     1.7500
 size of   fine   gmax                          :    26.8966   1/A
 finite basis set correction                    : none

 **************************** Electronic Parameters ****************************

 number of  electrons                           :  48.00
 net charge of system                           :  0.000
 treating system as non-spin-polarized
 number of bands                                :         29

 ********************* Electronic Minimization Parameters **********************

 Method: Treating system as metallic with density mixing treatment of electrons,
         and number of  SD  steps               :          1
         and number of  CG  steps               :          4

 total energy / atom convergence tol.           : 0.1000E-07   eV
 eigen-energy convergence tolerance             : 0.4167E-08   eV
 max force / atom convergence tol.              : ignored
 convergence tolerance window                   :          3   cycles
 max. number of SCF cycles                      :         30
 number of fixed-spin iterations                :         10
 smearing scheme                                : Gaussian
[...]
|    21  |   0.344166E+01    |   1.00000      |                   <- occ
|    22  |   0.393826E+01    |   1.00000      |                   <- occ
|    23  |   0.425298E+01    |   1.00000      |                   <- occ
|    24  |   0.427900E+01    |   1.00000      |                   <- occ
|    25  |   0.130029E+02    |   0.00000      |                   <- occ
+--------+-------------------+----------------+                   <- occ
Spin 1, kpoint ( 0.400000  0.400000  0.400000 ) weight = 0.016000
|  Band  |   Eigenvalue      |    Occupancy   |                   <- occ
+--------+-------------------+----------------+                   <- occ
|    21  |   0.407101E+01    |   1.00000      |                   <- occ
|    22  |   0.407101E+01    |   1.00000      |                   <- occ
|    23  |   0.427494E+01    |   1.00000      |                   <- occ
|    24  |   0.427494E+01    |   1.00000      |                   <- occ
|    25  |   0.125076E+02    |   0.00000      |                   <- occ
+--------+-------------------+----------------+                   <- occ
Spin 1, kpoint (-0.400000  0.400000 -0.400000 ) weight = 0.048000
|  Band  |   Eigenvalue      |    Occupancy   |                   <- occ
+--------+-------------------+----------------+                   <- occ
|    21  |   0.376854E+01    |   1.00000      |                   <- occ
|    22  |   0.378446E+01    |   1.00000      |                   <- occ
|    23  |   0.401233E+01    |   1.00000      |                   <- occ
|    24  |   0.406569E+01    |   1.00000      |                   <- occ
|    25  |   0.134198E+02    |   0.00000      |                   <- occ
+--------+-------------------+----------------+                   <- occ
Spin 1, kpoint ( 0.000000  0.000000  0.000000 ) weight = 0.008000
|  Band  |   Eigenvalue      |    Occupancy   |                   <- occ
+--------+-------------------+----------------+                   <- occ
|    21  |   0.404225E+01    |   1.00000      |                   <- occ
|    22  |   0.449840E+01    |   1.00000      |                   <- occ
|    23  |   0.449841E+01    |   1.00000      |                   <- occ
|    24  |   0.454100E+01    |   1.00000      |                   <- occ
|    25  |   0.105830E+02    |   0.00000      |                   <- occ
+--------+-------------------+----------------+                   <- occ
Spin 1, kpoint ( 0.000000  0.400000  0.400000 ) weight = 0.048000
|  Band  |   Eigenvalue      |    Occupancy   |                   <- occ
+--------+-------------------+----------------+                   <- occ
|    21  |   0.339624E+01    |   1.00000      |                   <- occ
|    22  |   0.382294E+01    |   1.00000      |                   <- occ
|    23  |   0.395364E+01    |   1.00000      |                   <- occ
|    24  |   0.423547E+01    |   1.00000      |                   <- occ
|    25  |   0.134804E+02    |   0.00000      |                   <- occ
+--------+-------------------+----------------+                   <- occ
Spin 1, kpoint ( 0.200000 -0.200000  0.000000 ) weight = 0.048000
|  Band  |   Eigenvalue      |    Occupancy   |                   <- occ
+--------+-------------------+----------------+                   <- occ
|    21  |   0.367302E+01    |   1.00000      |                   <- occ
|    22  |   0.400010E+01    |   1.00000      |                   <- occ
|    23  |   0.433516E+01    |   1.00000      |                   <- occ
|    24  |   0.444102E+01    |   1.00000      |                   <- occ
|    25  |   0.124757E+02    |   0.00000      |                   <- occ
+--------+-------------------+----------------+                   <- occ
Have a nice day.

Writing analysis data to al2o3_xc-PBESOL_c-0900_k-5x5x5_nmr.castep_bin

Writing model to al2o3_xc-PBESOL_c-0900_k-5x5x5_nmr.check

  +       Calculation of Nuclear Magnetic Resonance Parameters        +

Macroscopic Susceptibility      -58.7925   10^-6 cm^3 mol^-1

             -61.4449      0.0001      0.0000
               0.0001    -61.4448      0.0000
               0.0000      0.0000    -53.4878

Contribution to chemical shielding       -9.5600  ppm
  Total Time for Chemical Shielding Tensors      313.04 sec       |<-- NMR

  |                Chemical Shielding and Electric Field Gradient Tensors       |
  |     Nucleus                       Shielding tensor             EFG Tensor   |
  |    Species            Ion    Iso(ppm)   Aniso(ppm)  Asym    Cq(MHz)    Eta  |
  |    O                  1      169.85      -5.36      0.87   2.259E+00   0.50 |
  |    O                  2      169.85      -5.36      0.87   2.259E+00   0.50 |
  |    O                  3      169.85      -5.36      0.87   2.259E+00   0.50 |
  |    O                  4      169.85      -5.36      0.87   2.259E+00   0.50 |
  |    O                  5      169.85      -5.36      0.87   2.259E+00   0.50 |
  |    O                  6      169.85      -5.36      0.87   2.259E+00   0.50 |
  |    Al                 1      535.94     -13.35      0.00   2.305E+00   0.00 |
  |    Al                 2      535.94     -13.35      0.00   2.305E+00   0.00 |
  |    Al                 3      535.94     -13.35      0.00   2.305E+00   0.00 |
  |    Al                 4      535.94     -13.35      0.00   2.305E+00   0.00 |

 *********************** Ewald forces ***********************
 *               Cartesian components (eV/A)                *
 *                         x            y            z      *
 * O               1     32.15752      0.00007     -0.00012 *
 * O               2    -16.07869    -27.84915      0.00001 *
 * O               3    -16.07870     27.84932      0.00011 *
 * O               4     16.07869     27.84915     -0.00001 *
 * O               5     16.07870    -27.84932     -0.00011 *
 * O               6    -32.15752     -0.00007      0.00012 *
 * Al              1      0.00008      0.00001    -16.38836 *
 * Al              2      0.00002     -0.00009    -16.38836 *
 * Al              3     -0.00008     -0.00001     16.38836 *
 * Al              4     -0.00002      0.00009     16.38836 *

 ****************** Local potential forces ******************
 *               Cartesian components (eV/A)                *
 *                         x            y            z      *
 * O               1    -31.28944      0.00003      0.00004 *
 * O               2     15.64472     27.09747      0.00001 *
 * O               3     15.64474    -27.09746     -0.00004 *
 * O               4    -15.64472    -27.09747     -0.00001 *
 * O               5    -15.64474     27.09746      0.00004 *
 * O               6     31.28944     -0.00003     -0.00004 *
 * Al              1     -0.00005     -0.00002     15.49870 *
 * Al              2     -0.00001      0.00007     15.49870 *
 * Al              3      0.00005      0.00002    -15.49870 *
 * Al              4      0.00001     -0.00007    -15.49870 *

 **************** Non-local potential forces ****************
 *               Cartesian components (eV/A)                *
 *                         x            y            z      *
 * O               1     -1.25879     -0.42885     -0.01733 *
 * O               2      0.59602      0.28576     -0.14264 *
 * O               3      0.39059     -0.79012      0.13391 *
 * O               4     -0.59602     -0.28575      0.14264 *
 * O               5     -0.39059      0.79013     -0.13391 *
 * O               6      1.25878      0.42884      0.01733 *
 * Al              1      0.01653      0.02840      0.89128 *
 * Al              2     -0.06980     -0.06119      0.89153 *
 * Al              3     -0.01653     -0.02841     -0.89128 *
 * Al              4      0.06980      0.06119     -0.89153 *

 ************** External Efield and/or dipole ***************
 *               Cartesian components (eV/A)                *
 *                         x            y            z      *
 * O               1      0.00000      0.00000      0.00000 *
 * O               2      0.00000      0.00000      0.00000 *
 * O               3      0.00000      0.00000      0.00000 *
 * O               4      0.00000      0.00000      0.00000 *
 * O               5      0.00000      0.00000      0.00000 *
 * O               6      0.00000      0.00000      0.00000 *
 * Al              1      0.00000      0.00000      0.00000 *
 * Al              2      0.00000      0.00000      0.00000 *
 * Al              3      0.00000      0.00000      0.00000 *
 * Al              4      0.00000      0.00000      0.00000 *

 ***************** DM correction to forces ******************
 *               Cartesian components (eV/A)                *
 *                         x            y            z      *
 * O               1      0.00000      0.00000      0.00000 *
 * O               2      0.00000      0.00000      0.00000 *
 * O               3      0.00000      0.00000      0.00000 *
 * O               4      0.00000      0.00000      0.00000 *
 * O               5      0.00000      0.00000      0.00000 *
 * O               6      0.00000      0.00000      0.00000 *
 * Al              1      0.00000      0.00000      0.00000 *
 * Al              2      0.00000      0.00000      0.00000 *
 * Al              3      0.00000      0.00000      0.00000 *
 * Al              4      0.00000      0.00000      0.00000 *

 ******************** Symmetrised Forces ********************
 *               Cartesian components (eV/A)                *
 *                         x            y            z      *
 * O               1     -0.02656      0.00000      0.00000 *
 * O               2      0.01328      0.02300     -0.00000 *
 * O               3      0.01328     -0.02300     -0.00000 *
 * O               4     -0.01328     -0.02300      0.00000 *
 * O               5     -0.01328      0.02300      0.00000 *
 * O               6      0.02656     -0.00000     -0.00000 *
 * Al              1      0.00000     -0.00000      0.00174 *
 * Al              2      0.00000     -0.00000      0.00174 *
 * Al              3     -0.00000      0.00000     -0.00174 *
 * Al              4     -0.00000      0.00000     -0.00174 *

[...]

 Converged in 33 iterations to a total energy of -431.1291 eV

 Pseudo atomic calculation performed for Al 3s2 3p1

 Converged in 20 iterations to a total energy of -105.9172 eV
Charge spilling parameter for spin component 1 = 0.78%

            Orbital Populations
     Ion    Atom   Orbital             Charge
      O     1      S                    1.832
      O     1      Px                   1.717
      O     1      Py                   1.762
      O     1      Pz                   1.744
      O     2      S                    1.833
      O     2      Px                   1.739
      O     2      Py                   1.732
      O     2      Pz                   1.741
      O     3      S                    1.833
      O     3      Px                   1.740
      O     3      Py                   1.731
      O     3      Pz                   1.743
      O     4      S                    1.833
      O     4      Px                   1.740
      O     4      Py                   1.731
      O     4      Pz                   1.740
      O     5      S                    1.833
      O     5      Px                   1.740
      O     5      Py                   1.730
      O     5      Pz                   1.743
      O     6      S                    1.832
      O     6      Px                   1.717
      O     6      Py                   1.761
      O     6      Pz                   1.744
     Al     1      S                    0.518
     Al     1      Px                   0.295
     Al     1      Py                   0.317
     Al     1      Pz                   0.298
     Al     2      S                    0.518
     Al     2      Px                   0.302
     Al     2      Py                   0.309
     Al     2      Pz                   0.298
     Al     3      S                    0.518
     Al     3      Px                   0.295
     Al     3      Py                   0.317
     Al     3      Pz                   0.298
     Al     4      S                    0.518
     Al     4      Px                   0.302
     Al     4      Py                   0.309
     Al     4      Pz                   0.298
                           Total:      47.999
The total projected population is   47.999  -0.000

     Atomic Populations (Mulliken)
Species          Ion     s       p       d       f      Total   Charge (e)
  O               1     1.833   5.216   0.000   0.000   7.048    -1.048
  O               2     1.833   5.216   0.000   0.000   7.048    -1.048
  O               3     1.833   5.216   0.000   0.000   7.048    -1.048
  O               4     1.833   5.216   0.000   0.000   7.048    -1.048
  O               5     1.833   5.216   0.000   0.000   7.048    -1.048
  O               6     1.833   5.216   0.000   0.000   7.048    -1.048
  Al              1     0.518   0.910   0.000   0.000   1.427     1.573
  Al              2     0.518   0.910   0.000   0.000   1.427     1.573
  Al              3     0.518   0.910   0.000   0.000   1.427     1.573
  Al              4     0.518   0.910   0.000   0.000   1.427     1.573

                 Bond                   Population      Length (A)
               O 1 -- Al 2                   0.36        1.86027
               O 6 -- Al 4                   0.36        1.86027
               O 3 -- Al 3                   0.36        1.86027
               O 5 -- Al 1                   0.36        1.86027
               O 2 -- Al 2                   0.36        1.86027
               O 4 -- Al 4                   0.36        1.86027
               O 4 -- Al 1                   0.36        1.86027
               O 2 -- Al 3                   0.36        1.86027
               O 6 -- Al 1                   0.36        1.86027
               O 1 -- Al 3                   0.36        1.86027
               O 3 -- Al 2                   0.36        1.86027
               O 5 -- Al 4                   0.36        1.86027
               O 1 -- Al 4                   0.26        1.97445
               O 6 -- Al 2                   0.26        1.97445
               O 3 -- Al 4                   0.26        1.97445
               O 5 -- Al 2                   0.26        1.97445
               O 3 -- Al 1                   0.26        1.97445
               O 5 -- Al 3                   0.26        1.97445
               O 6 -- Al 3                   0.26        1.97445
               O 1 -- Al 1                   0.26        1.97445
               O 4 -- Al 3                   0.26        1.97445
               O 2 -- Al 1                   0.26        1.97445
               O 2 -- Al 4                   0.26        1.97445
               O 4 -- Al 2                   0.26        1.97445
               O 5 -- O 6                   -0.17        2.53024
               O 1 -- O 3                   -0.17        2.53024
               O 4 -- O 5                   -0.17        2.53024
               O 2 -- O 3                   -0.17        2.53024
               O 4 -- O 6                   -0.17        2.53024
               O 1 -- O 2                   -0.17        2.53024
               O 2 -- O 4                   -0.16        2.62456
               O 1 -- O 6                   -0.16        2.62456
               O 3 -- O 5                   -0.16        2.62456
              Al 2 -- Al 3                  -0.52        2.65661
              Al 1 -- Al 4                  -0.52        2.65661
               O 3 -- O 4                   -0.10        2.73090
               O 2 -- O 5                   -0.10        2.73090
               O 3 -- O 6                   -0.10        2.73090
               O 1 -- O 5                   -0.10        2.73090
               O 2 -- O 6                   -0.10        2.73090
               O 1 -- O 4                   -0.10        2.73090
              Al 1 -- Al 3                  -0.65        2.79818
              Al 2 -- Al 4                  -0.65        2.79818

Writing analysis data to al2o3_xc-PBESOL_c-0900_k-5x5x5_nmr.castep_bin

Writing model to al2o3_xc-PBESOL_c-0900_k-5x5x5_nmr.check

 A BibTeX formatted list of references used in this run has been written to
 al2o3_xc-PBESOL_c-0900_k-5x5x5_nmr.bib

Initialisation time =      5.78 s
Calculation time    =    363.07 s
Finalisation time   =      0.09 s
Total time          =    368.93 s

Overall parallel efficiency rating: Excellent (98%)

Data was distributed by:-
k-point (4-way); efficiency rating: Excellent (98%)

Parallel notes:
1) Calculation only took 368.9 s, so efficiency estimates may be inaccurate.
2) k-points were not fully distributed, there were 5 k-points per process.