 Run started: Tue, 16 Aug 2022 11:53:55 +0100

 ******************************* User Parameters *******************************
iprint                 : 2                                        # verbosity control (I)
reuse                  : al2o3_xc-PBESOL_c-0900_k-5x5x5_nmr.check # reuse filename (S)
task                   : Spectral                                 # type of calculation (S)
optstrategy            : speed                                    # optimization strategy (S)
xcfunctional           : pbesol                                   # exchange-correlation functional (S)
cutoffenergy           : 900.0000000 ev                           # maximum energy of planewaves in basis set (P)
numdumpcycles          : 0                                        # frequency of wavefunction dumps (I)
pdoscalculateweights   : T                                        # partial DOS analysis on/off (L)
spectraltask           : dos                                      # type of spectrum to calculate (S)
spectralpercextrabands : 100.0000000                              # percentage of extra spectral bands (R)

 Atomic calculation performed for O: 1s2 2s2 2p4

 Converged in 57 iterations to an ae energy of -2034.019 eV

    == Comparison of all-electron and pseudo eig ===
    ==         taken from descreening step.      ===
    == A more accurate error estimate is given   ===
    == by using the scf pseudo test -            ===
    == add [] to end of otfg string to activate  ===
    AE l  no    occ        eig (Ha)
    PS l  no               eig (Ha)         diff
    ae 0   2   2.000    -0.8749487920
    ps 0   2            -0.8749599405    -0.1115E-04
    ae 1   1   4.000    -0.3297966080
    ps 1   1            -0.3298023493    -0.5741E-05
   | Pseudopotential Report - Date of generation 16-08-2022   |
   | Element: O Ionic charge:  6.00 Level of theory: PBESOL   |
   | Atomic Solver: Koelling-Harmon                           |
   |               Reference Electronic Structure             |
   |         Orbital         Occupation         Energy        |
   |            2s              2.000           -0.875        |
   |            2p              4.000           -0.330        |
   |                 Pseudopotential Definition               |
   |        Beta     l      e      Rc     scheme   norm       |
   |          1      0   -0.875   1.100     qc      0         |
   |          2      0    0.250   1.100     qc      0         |
   |          3      1   -0.330   1.100     qc      0         |
   |          4      1    0.250   1.100     qc      0         |
   |         loc     2    0.000   1.100     pn      0         |
   | Augmentation charge Rinner = 0.769                       |
   | Partial core correction Rc = 0.769                       |
   | "2|1.1|17|20|23|20:21(qc=8)"                             |
   |      Author: Chris J. Pickard, Cambridge University      |

 Atomic calculation performed for Al: 1s2 2s2 2p6 3s2 3p1

[...]

    == Comparison of all-electron and pseudo eig ===
    ==         taken from descreening step.      ===
    == A more accurate error estimate is given   ===
    == by using the scf pseudo test -            ===
    == add [] to end of otfg string to activate  ===
    AE l  no    occ        eig (Ha)
    PS l  no               eig (Ha)         diff
    ae 0   3   2.000    -0.2835226939
    ps 0   3            -0.2835236172    -0.9233E-06
    ae 1   2   1.000    -0.0988403377
    ps 1   2            -0.0988400873     0.2504E-06
   | Pseudopotential Report - Date of generation 16-08-2022   |
   | Element: Al Ionic charge:  3.00 Level of theory: PBESOL  |
   | Atomic Solver: Koelling-Harmon                           |
   |               Reference Electronic Structure             |
   |         Orbital         Occupation         Energy        |
   |            3s              2.000           -0.284        |
   |            3p              1.000           -0.099        |
   |                 Pseudopotential Definition               |
   |        Beta     l      e      Rc     scheme   norm       |
   |          1      0   -0.284   2.192     qc      0         |
   |          2      0    0.250   2.192     qc      0         |
   |          3      1   -0.099   2.192     qc      0         |
   |          4      1    0.250   2.192     qc      0         |
   |          5      2    0.000   2.000     qc      0         |
   |          6      2    0.250   2.000     qc      0         |
   |         loc     3    0.000   2.192     pn      0         |
   | Augmentation charge Rinner = 1.398                       |
   | Partial core correction Rc = 1.398                       |
   | "3|2.2|2.2|1.4|4|5|5|30:31:32U2U2"                       |
   |      Author: Chris J. Pickard, Cambridge University      |

 Pseudo atomic calculation performed for O 2s2 2p4

 Converged in 14 iterations to a total energy of -431.1291 eV

[...]

 Converged in 11 iterations to a total energy of -105.9172 eV
Initialising basis set.

Standard grid dimensions:  45  45  45
Fine grid dimensions:      45  45  45

G-vector group:   1
 X-columns:
Process  Num. Cols.  Num. Fine Cols.  Num Weight. Cols.  Num Fine Weight. Cols.
   1         507              507                109                     109
   2         506              506                110                     110
   3         506              506                110                     110
   4         506              506                110                     110
Total       2025             2025                439                     439
 Y-columns:
Process  Num. Cols.  Num. Fine Cols.  Num Weight. Cols.  Num Fine Weight. Cols.
   1         507              507                282                     282
   2         506              506                281                     281
   3         506              506                281                     281
   4         506              506                281                     281
Total       2025             2025               1125                    1125
 Z-columns:
Process  Num. Cols.  Num. Fine Cols.  Num Weight. Cols.  Num Fine Weight. Cols.
   1         507              507                507                     507
   2         506              506                506                     506
   3         506              506                506                     506
   4         506              506                506                     506
Total       2025             2025               2025                    2025

 Run started: Tue, 16 Aug 2022 11:55:16 +0100

[...]

 ******************************* User Parameters *******************************
iprint                 : 2                                        # verbosity control (I)
reuse                  : al2o3_xc-PBESOL_c-0900_k-5x5x5_nmr.check # reuse filename (S)
task                   : Spectral                                 # type of calculation (S)
optstrategy            : speed                                    # optimization strategy (S)
xcfunctional           : pbesol                                   # exchange-correlation functional (S)
cutoffenergy           : 900.0000000 ev                           # maximum energy of planewaves in basis set (P)
numdumpcycles          : 0                                        # frequency of wavefunction dumps (I)
pdoscalculateweights   : T                                        # partial DOS analysis on/off (L)
spectraltask           : dos                                      # type of spectrum to calculate (S)
spectralpercextrabands : 80.0000000                               # percentage of extra spectral bands (R)

 Atomic calculation performed for O: 1s2 2s2 2p4

[...]

    == Comparison of all-electron and pseudo eig ===
    ==         taken from descreening step.      ===
    == A more accurate error estimate is given   ===
    == by using the scf pseudo test -            ===
    == add [] to end of otfg string to activate  ===
    AE l  no    occ        eig (Ha)
    PS l  no               eig (Ha)         diff
    ae 0   2   2.000    -0.8749487920
    ps 0   2            -0.8749599405    -0.1115E-04
    ae 1   1   4.000    -0.3297966080
    ps 1   1            -0.3298023493    -0.5741E-05
   | Pseudopotential Report - Date of generation 16-08-2022   |
   | Element: O Ionic charge:  6.00 Level of theory: PBESOL   |
   | Atomic Solver: Koelling-Harmon                           |
   |               Reference Electronic Structure             |
   |         Orbital         Occupation         Energy        |
   |            2s              2.000           -0.875        |
   |            2p              4.000           -0.330        |
   |                 Pseudopotential Definition               |
   |        Beta     l      e      Rc     scheme   norm       |
   |          1      0   -0.875   1.100     qc      0         |
   |          2      0    0.250   1.100     qc      0         |
   |          3      1   -0.330   1.100     qc      0         |
   |          4      1    0.250   1.100     qc      0         |
   |         loc     2    0.000   1.100     pn      0         |
   | Augmentation charge Rinner = 0.769                       |
   | Partial core correction Rc = 0.769                       |
   | "2|1.1|17|20|23|20:21(qc=8)"                             |
   |      Author: Chris J. Pickard, Cambridge University      |

 Atomic calculation performed for Al: 1s2 2s2 2p6 3s2 3p1

 Converged in 55 iterations to an ae energy of -6590.489 eV

    == Comparison of all-electron and pseudo eig ===
    ==         taken from descreening step.      ===
    == A more accurate error estimate is given   ===
    == by using the scf pseudo test -            ===
    == add [] to end of otfg string to activate  ===
    AE l  no    occ        eig (Ha)
    PS l  no               eig (Ha)         diff
    ae 0   3   2.000    -0.2835226939
    ps 0   3            -0.2835236172    -0.9233E-06
    ae 1   2   1.000    -0.0988403377
    ps 1   2            -0.0988400873     0.2504E-06
   | Pseudopotential Report - Date of generation 16-08-2022   |
   | Element: Al Ionic charge:  3.00 Level of theory: PBESOL  |
   | Atomic Solver: Koelling-Harmon                           |
   |               Reference Electronic Structure             |
   |         Orbital         Occupation         Energy        |
   |            3s              2.000           -0.284        |
   |            3p              1.000           -0.099        |
   |                 Pseudopotential Definition               |
   |        Beta     l      e      Rc     scheme   norm       |
   |          1      0   -0.284   2.192     qc      0         |
   |          2      0    0.250   2.192     qc      0         |
   |          3      1   -0.099   2.192     qc      0         |
   |          4      1    0.250   2.192     qc      0         |
   |          5      2    0.000   2.000     qc      0         |
   |          6      2    0.250   2.000     qc      0         |
   |         loc     3    0.000   2.192     pn      0         |
   | Augmentation charge Rinner = 1.398                       |
[...]
|    26  |   0.140574E+02    |   0.00000      |                   <- occ
+--------+-------------------+----------------+                   <- occ
Spin 1, kpoint ( 0.200000  0.400000  0.200000 ) weight = 0.048000
|  Band  |   Eigenvalue      |    Occupancy   |                   <- occ
+--------+-------------------+----------------+                   <- occ
|    24  |   0.427092E+01    |   1.00000      |                   <- occ
|    25  |   0.122870E+02    |   0.00000      |                   <- occ
|    26  |   0.141902E+02    |   0.00000      |                   <- occ
+--------+-------------------+----------------+                   <- occ
Spin 1, kpoint ( 0.200000  0.400000  0.400000 ) weight = 0.048000
|  Band  |   Eigenvalue      |    Occupancy   |                   <- occ
+--------+-------------------+----------------+                   <- occ
|    24  |   0.422773E+01    |   1.00000      |                   <- occ
|    25  |   0.126749E+02    |   0.00000      |                   <- occ
|    26  |   0.141135E+02    |   0.00000      |                   <- occ
+--------+-------------------+----------------+                   <- occ
Spin 1, kpoint ( 0.400000  0.400000  0.400000 ) weight = 0.016000
|  Band  |   Eigenvalue      |    Occupancy   |                   <- occ
+--------+-------------------+----------------+                   <- occ
|    24  |   0.427490E+01    |   1.00000      |                   <- occ
|    25  |   0.125076E+02    |   0.00000      |                   <- occ
|    26  |   0.133651E+02    |   0.00000      |                   <- occ
+--------+-------------------+----------------+                   <- occ
Have a nice day.

Writing analysis data to al2o3_xc-PBESOL_c-0900_k-5x5x5_dos.castep_bin

Writing model to al2o3_xc-PBESOL_c-0900_k-5x5x5_dos.check
Initialising basis set.

[...]

  +                 Calculation of Spectral Properties                +
  + Calculation re-parallelised over 4 processes.                     +
  + Data distributed by G-vector(2-way), k-point(2-way), band(1-way)  +
  + Data distributed by G-vector(2-way), k-point(2-way)               +

[...]

 Converged in 11 iterations to a total energy of -105.9172 eV
  Starting k-point:        1 of      335 on this process      |<-- SPEC
  Diag Hamiltonian conv in  19 iter. Time:      3.67 sec      |<-- SPEC
  Create optics matrix elements      Time:      0.14 sec      |<-- SPEC

[...]

 Converged in 11 iterations to a total energy of -105.9172 eV
  Create pdos weights                Time:      0.72 sec      |<-- SPEC
  Time for k-point:        1 of      335          4.54 sec    |<-- SPEC
  Starting k-point:        2 of      335 on this process      |<-- SPEC
  Diag Hamiltonian conv in  18 iter. Time:      3.49 sec      |<-- SPEC
  Create optics matrix elements      Time:      0.15 sec      |<-- SPEC

[...]

 Converged in 11 iterations to a total energy of -105.9172 eV
  Create pdos weights                Time:      0.67 sec      |<-- SPEC
  Time for k-point:      334 of      335          3.99 sec    |<-- SPEC
  Starting k-point:      335 of      335 on this process      |<-- SPEC
  Diag Hamiltonian conv in  19 iter. Time:      3.33 sec      |<-- SPEC
  Create optics matrix elements      Time:      0.16 sec      |<-- SPEC

[...]

 Converged in 11 iterations to a total energy of -105.9172 eV
  Create pdos weights                Time:      0.72 sec      |<-- SPEC
  Time for k-point:      335 of      335          4.21 sec    |<-- SPEC
  Total time to compute matrix elements           1430.04 sec |<-- SPEC

  Output matrix elements             Time:      1.31 sec      |<-- SPEC

  + Calculation re-parallelised over 4 processes.                     +
  + Data distributed by G-vector(4-way)                               +
Initialising basis set.

Standard grid dimensions:  45  45  45
Fine grid dimensions:      45  45  45

G-vector group:   1
 X-columns:
Process  Num. Cols.  Num. Fine Cols.  Num Weight. Cols.  Num Fine Weight. Cols.
   1         507              507                109                     109
   2         506              506                110                     110
   3         506              506                110                     110
   4         506              506                110                     110
Total       2025             2025                439                     439
 Y-columns:
Process  Num. Cols.  Num. Fine Cols.  Num Weight. Cols.  Num Fine Weight. Cols.
   1         507              507                282                     282
   2         506              506                281                     281
   3         506              506                281                     281
   4         506              506                281                     281
Total       2025             2025               1125                    1125
 Z-columns:
Process  Num. Cols.  Num. Fine Cols.  Num Weight. Cols.  Num Fine Weight. Cols.
   1         507              507                507                     507
   2         506              506                506                     506
   3         506              506                506                     506
   4         506              506                506                     506
Total       2025             2025               2025                    2025

 *********************** Ewald forces ***********************
 *               Cartesian components (eV/A)                *
 *                         x            y            z      *
 * O               1     32.15752      0.00007     -0.00012 *
 * O               2    -16.07869    -27.84915      0.00001 *
 * O               3    -16.07870     27.84932      0.00011 *
 * O               4     16.07869     27.84915     -0.00001 *
 * O               5     16.07870    -27.84932     -0.00011 *
 * O               6    -32.15752     -0.00007      0.00012 *
 * Al              1      0.00008      0.00001    -16.38836 *
 * Al              2      0.00002     -0.00009    -16.38836 *
 * Al              3     -0.00008     -0.00001     16.38836 *
 * Al              4     -0.00002      0.00009     16.38836 *

 ****************** Local potential forces ******************
 *               Cartesian components (eV/A)                *
 *                         x            y            z      *
 * O               1    -31.28939      0.00003      0.00004 *
 * O               2     15.64470     27.09743      0.00001 *
 * O               3     15.64472    -27.09741     -0.00004 *
 * O               4    -15.64470    -27.09743     -0.00001 *
 * O               5    -15.64472     27.09741      0.00004 *
 * O               6     31.28939     -0.00003     -0.00004 *
 * Al              1     -0.00005     -0.00002     15.49867 *
 * Al              2     -0.00001      0.00007     15.49867 *
 * Al              3      0.00005      0.00002    -15.49867 *
 * Al              4      0.00001     -0.00007    -15.49867 *

 **************** Non-local potential forces ****************
 *               Cartesian components (eV/A)                *
 *                         x            y            z      *
 * O               1     -1.25880     -0.42883     -0.01733 *
 * O               2      0.59603      0.28578     -0.14265 *
 * O               3      0.39060     -0.79014      0.13391 *
 * O               4     -0.59603     -0.28578      0.14265 *
 * O               5     -0.39060      0.79014     -0.13391 *
 * O               6      1.25880      0.42883      0.01733 *
 * Al              1      0.01653      0.02840      0.89128 *
 * Al              2     -0.06980     -0.06119      0.89153 *
 * Al              3     -0.01653     -0.02840     -0.89128 *
 * Al              4      0.06980      0.06119     -0.89153 *

 ************** External Efield and/or dipole ***************
 *               Cartesian components (eV/A)                *
 *                         x            y            z      *
 * O               1      0.00000      0.00000      0.00000 *
 * O               2      0.00000      0.00000      0.00000 *
 * O               3      0.00000      0.00000      0.00000 *
 * O               4      0.00000      0.00000      0.00000 *
 * O               5      0.00000      0.00000      0.00000 *
 * O               6      0.00000      0.00000      0.00000 *
 * Al              1      0.00000      0.00000      0.00000 *
 * Al              2      0.00000      0.00000      0.00000 *
 * Al              3      0.00000      0.00000      0.00000 *
 * Al              4      0.00000      0.00000      0.00000 *

 ***************** DM correction to forces ******************
 *               Cartesian components (eV/A)                *
 *                         x            y            z      *
 * O               1      0.00000      0.00000      0.00000 *
 * O               2      0.00000      0.00000      0.00000 *
 * O               3      0.00000      0.00000      0.00000 *
 * O               4      0.00000      0.00000      0.00000 *
 * O               5      0.00000      0.00000      0.00000 *
 * O               6      0.00000      0.00000      0.00000 *
 * Al              1      0.00000      0.00000      0.00000 *
 * Al              2      0.00000      0.00000      0.00000 *
 * Al              3      0.00000      0.00000      0.00000 *
 * Al              4      0.00000      0.00000      0.00000 *

 ******************** Symmetrised Forces ********************
 *               Cartesian components (eV/A)                *
 *                         x            y            z      *
 * O               1     -0.02653      0.00000      0.00000 *
 * O               2      0.01327      0.02298     -0.00000 *
 * O               3      0.01327     -0.02298     -0.00000 *
 * O               4     -0.01327     -0.02298      0.00000 *
 * O               5     -0.01327      0.02298      0.00000 *
 * O               6      0.02653     -0.00000     -0.00000 *
 * Al              1      0.00000     -0.00000      0.00171 *
 * Al              2      0.00000     -0.00000      0.00171 *
 * Al              3     -0.00000      0.00000     -0.00171 *
 * Al              4     -0.00000      0.00000     -0.00171 *

[...]

 Converged in 14 iterations to a total energy of -431.1291 eV

 Pseudo atomic calculation performed for Al 3s2 3p1

 Converged in 11 iterations to a total energy of -105.9172 eV
Charge spilling parameter for spin component 1 = 0.78%

            Orbital Populations
     Ion    Atom   Orbital             Charge
      O     1      S                    1.832
      O     1      Px                   1.717
      O     1      Py                   1.762
      O     1      Pz                   1.744
      O     2      S                    1.833
      O     2      Px                   1.740
      O     2      Py                   1.732
      O     2      Pz                   1.741
      O     3      S                    1.833
      O     3      Px                   1.740
      O     3      Py                   1.729
      O     3      Pz                   1.743
      O     4      S                    1.833
      O     4      Px                   1.740
      O     4      Py                   1.731
      O     4      Pz                   1.741
      O     5      S                    1.833
      O     5      Px                   1.740
      O     5      Py                   1.730
      O     5      Pz                   1.744
      O     6      S                    1.832
      O     6      Px                   1.717
      O     6      Py                   1.761
      O     6      Pz                   1.744
     Al     1      S                    0.518
     Al     1      Px                   0.295
     Al     1      Py                   0.317
     Al     1      Pz                   0.298
     Al     2      S                    0.517
     Al     2      Px                   0.302
     Al     2      Py                   0.309
     Al     2      Pz                   0.298
     Al     3      S                    0.518
     Al     3      Px                   0.295
     Al     3      Py                   0.317
     Al     3      Pz                   0.298
     Al     4      S                    0.517
     Al     4      Px                   0.302
     Al     4      Py                   0.309
     Al     4      Pz                   0.298
                           Total:      47.999
The total projected population is   47.999  -0.000

     Atomic Populations (Mulliken)
Species          Ion     s       p       d       f      Total   Charge (e)
  O               1     1.833   5.216   0.000   0.000   7.048    -1.048
  O               2     1.833   5.216   0.000   0.000   7.048    -1.048
  O               3     1.833   5.216   0.000   0.000   7.048    -1.048
  O               4     1.833   5.216   0.000   0.000   7.048    -1.048
  O               5     1.833   5.216   0.000   0.000   7.048    -1.048
  O               6     1.833   5.216   0.000   0.000   7.048    -1.048
  Al              1     0.518   0.909   0.000   0.000   1.427     1.573
  Al              2     0.518   0.909   0.000   0.000   1.427     1.573
  Al              3     0.518   0.909   0.000   0.000   1.427     1.573
  Al              4     0.518   0.909   0.000   0.000   1.427     1.573

                 Bond                   Population      Length (A)
               O 1 -- Al 2                   0.36        1.86027
               O 6 -- Al 4                   0.36        1.86027
               O 3 -- Al 3                   0.36        1.86027
               O 5 -- Al 1                   0.36        1.86027
               O 2 -- Al 2                   0.36        1.86027
               O 4 -- Al 4                   0.36        1.86027
               O 4 -- Al 1                   0.36        1.86027
               O 2 -- Al 3                   0.36        1.86027
               O 6 -- Al 1                   0.36        1.86027
               O 1 -- Al 3                   0.36        1.86027
               O 3 -- Al 2                   0.36        1.86027
               O 5 -- Al 4                   0.36        1.86027
               O 1 -- Al 4                   0.26        1.97445
               O 6 -- Al 2                   0.26        1.97445
               O 3 -- Al 4                   0.26        1.97445
               O 5 -- Al 2                   0.26        1.97445
               O 3 -- Al 1                   0.26        1.97445
               O 5 -- Al 3                   0.26        1.97445
               O 6 -- Al 3                   0.26        1.97445
               O 1 -- Al 1                   0.26        1.97445
               O 4 -- Al 3                   0.26        1.97445
               O 2 -- Al 1                   0.26        1.97445
               O 2 -- Al 4                   0.26        1.97445
               O 4 -- Al 2                   0.26        1.97445
               O 5 -- O 6                   -0.17        2.53024
               O 1 -- O 3                   -0.17        2.53024
               O 4 -- O 5                   -0.17        2.53024
               O 2 -- O 3                   -0.17        2.53024
               O 4 -- O 6                   -0.17        2.53024
               O 1 -- O 2                   -0.17        2.53024
               O 2 -- O 4                   -0.16        2.62456
               O 1 -- O 6                   -0.16        2.62456
               O 3 -- O 5                   -0.16        2.62456
              Al 2 -- Al 3                  -0.52        2.65661
              Al 1 -- Al 4                  -0.52        2.65661
               O 3 -- O 4                   -0.10        2.73090
               O 2 -- O 5                   -0.10        2.73090
               O 3 -- O 6                   -0.10        2.73090
               O 1 -- O 5                   -0.10        2.73090
               O 2 -- O 6                   -0.10        2.73090
               O 1 -- O 4                   -0.10        2.73090
              Al 1 -- Al 3                  -0.65        2.79818
              Al 2 -- Al 4                  -0.65        2.79818

Writing analysis data to al2o3_xc-PBESOL_c-0900_k-5x5x5_dos.castep_bin

Writing model to al2o3_xc-PBESOL_c-0900_k-5x5x5_dos.check

 A BibTeX formatted list of references used in this run has been written to
 al2o3_xc-PBESOL_c-0900_k-5x5x5_dos.bib

Initialisation time =     11.33 s
Calculation time    =   1442.95 s
Finalisation time   =      0.08 s
Total time          =   1454.35 s

Overall parallel efficiency rating: Good (73%)

Data was distributed by:-
G-vector (4-way); efficiency rating: Good (73%)

Parallel notes:
1) SMP optimisations were used (num_proc_in_smp=0).
2) k-points were not distributed.