 Run started: Tue, 14 Jun 2022 17:36:47 +0100

 ******************************* User Parameters *******************************
iprint        : 2              # verbosity control (I)
task          : magres         # type of calculation (S)
optstrategy   : speed          # optimization strategy (S)
xcfunctional  : PBESOL         # exchange-correlation functional (S)
cutoffenergy  : 900.0000000 ev # maximum energy of planewaves in basis set (P)
charge        : 1.0000000      # net charge (R)
numdumpcycles : 0              # frequency of wavefunction dumps (I)
magrestask    : EFG            # MAGRES run type (S)

 |           N   N    M   M    RRRR                |
 |           NN  N    MM MM    R   R               |
 |           N N N    M M M    RRRR                |
 |           N  NN    M   M    R  R                |
 |           N   N    M   M    R   R               |
 | Welcome to Materials Studio CASTEP-NMR          |
 | Authors:                                        |
 | J.R. Yates, C.J. Pickard, F. Mauri              |
 | Contributors:                                   |
 | T.F.G. Green, S.A. Joyce, R.T. Strong,          |
 | B-C. Shih                                       |
 | Copyright (c) 2004 - 2020                       |
 | Please cite the appropriate publications in all |
 | work arising from your use of CASTEP NMR.       |
 | For NMR Shielding Tensors cite:                 |
 |    "All-electron magnetic response with         |
 |    pseudopotentials: NMR chemical shifts",      |
 |    C. J. Pickard, F. Mauri;                     |
 |    Physical Review B63 245101 (2001), and       |
 |    "Calculation of NMR Chemical Shifts          |
 |    for extended systems using                   |
 |    Ultrasoft Pseudopotentials",                 |
 |    J. R. Yates, C. J. Pickard and F. Mauri      |
 |    Physical Review B76 024401 (2007)            |
 | For Electric Field Gradients cite:              |
 |   "Accurate First Principles Prediction of 17O  |
 |    NMR Parameters in SiO2: Assignment of the    |
 |    Zeolite Ferrierite Spectrum"                 |
 |    M. Profeta, F. Mauri and C. J. Pickard       |
 |    J. Amer. Chem. Soc. 125 541 (2003)           |
 | For Spin-Spin (J) Couplings cite:               |
 |   "A first principles theory of NMR J-coupling  |
 |   in solid-state systems"                       |
 |   S.A. Joyce, J.R. Yates, C.J. Pickard, F. Mauri|
 |   J. Chem. Phys. 127 204107 (2007)              |
 |   "Relativistic NMR J-coupling with ultrasoft   |
 |   pseudopotentials and the zeroth-order regular |
 |   approximation"                                |
 |   T.F.G. Green and J.R. Yates                   |
 |   J. Chem. Phys. 140 234106 (2014)              |

 Atomic calculation performed for Li: 1s2 2s1

 Converged in 48 iterations to an ae energy of -201.033 eV

   | Pseudopotential Report - Date of generation 14-06-2022   |
   | Element: Li Ionic charge:  3.00 Level of theory: PBESOL  |
   | Atomic Solver: Koelling-Harmon                           |
   |               Reference Electronic Structure             |
   |         Orbital         Occupation         Energy        |
   |            1s              2.000           -1.888        |
   |            2s              1.000           -0.104        |
   |                 Pseudopotential Definition               |
   |        Beta     l      e      Rc     scheme   norm       |
   |          1      0   -1.888   1.001     qc      0         |
   |          2      0   -0.104   1.001     qc      0         |
   |          3      0    0.250   1.001     qc      0         |
   |         loc     1    0.000   1.001     pn      0         |
   | Augmentation charge Rinner = 0.699                       |
   | No partial core correction                               |
   | "1|1.0|14|16|18|10U:20(qc=7)"                            |
   |      Author: Chris J. Pickard, Cambridge University      |

 Atomic calculation performed for O: 1s2 2s2 2p4

[...]

   | Pseudopotential Report - Date of generation 14-06-2022   |
   | Element: O Ionic charge:  6.00 Level of theory: PBESOL   |
   | Atomic Solver: Koelling-Harmon                           |
   |               Reference Electronic Structure             |
   |         Orbital         Occupation         Energy        |
   |            2s              2.000           -0.875        |
   |            2p              4.000           -0.330        |
   |                 Pseudopotential Definition               |
   |        Beta     l      e      Rc     scheme   norm       |
   |          1      0   -0.875   1.100     qc      0         |
   |          2      0    0.250   1.100     qc      0         |
   |          3      1   -0.330   1.100     qc      0         |
   |          4      1    0.250   1.100     qc      0         |
   |         loc     2    0.000   1.100     pn      0         |
   | Augmentation charge Rinner = 0.769                       |
   | Partial core correction Rc = 0.769                       |
   | "2|1.1|17|20|23|20:21(qc=8)"                             |
   |      Author: Chris J. Pickard, Cambridge University      |

 Atomic calculation performed for Al: 1s2 2s2 2p6 3s2 3p1

 Converged in 55 iterations to an ae energy of -6590.489 eV

   | Pseudopotential Report - Date of generation 14-06-2022   |
   | Element: Al Ionic charge:  3.00 Level of theory: PBESOL  |
   | Atomic Solver: Koelling-Harmon                           |
   |               Reference Electronic Structure             |
   |         Orbital         Occupation         Energy        |
   |            3s              2.000           -0.284        |
   |            3p              1.000           -0.099        |
   |                 Pseudopotential Definition               |
   |        Beta     l      e      Rc     scheme   norm       |
   |          1      0   -0.284   2.192     qc      0         |
   |          2      0    0.250   2.192     qc      0         |
   |          3      1   -0.099   2.192     qc      0         |
   |          4      1    0.250   2.192     qc      0         |
   |          5      2    0.000   2.000     qc      0         |
   |          6      2    0.250   2.000     qc      0         |
   |         loc     3    0.000   2.192     pn      0         |
   | Augmentation charge Rinner = 1.398                       |
   | Partial core correction Rc = 1.398                       |
   | "3|2.2|2.2|1.4|4|5|5|30:31:32U2U2"                       |
   |      Author: Chris J. Pickard, Cambridge University      |

 Pseudo atomic calculation performed for Li 1s2 2s1

 Converged in 22 iterations to a total energy of -198.8875 eV

 Pseudo atomic calculation performed for O 2s2 2p4

[...]

 Converged in 20 iterations to a total energy of -105.9172 eV
Initialising basis set.

Standard grid dimensions: 135 135 135
Fine grid dimensions:     135 135 135

G-vector group:   1
 X-columns:
Process  Num. Cols.  Num. Fine Cols.  Num Weight. Cols.  Num Fine Weight. Cols.
   1         911              911                187                     187
   2         912              912                188                     188
   3         912              912                188                     188
   4         912              912                188                     188
   5         912              912                188                     188
   6         912              912                188                     188
   7         912              912                188                     188
   8         912              912                188                     188
   9         912              912                188                     188
  10         912              912                186                     186
  11         912              912                186                     186
  12         912              912                186                     186
  13         912              912                186                     186
  14         910              910                186                     186
  15         910              910                186                     186
  16         910              910                186                     186
  17         910              910                186                     186
  18         910              910                186                     186
  19         910              910                186                     186
  20         910              910                186                     186
Total      18225            18225               3737                    3737
 Y-columns:
Process  Num. Cols.  Num. Fine Cols.  Num Weight. Cols.  Num Fine Weight. Cols.
   1         912              912                507                     507
   2         912              912                507                     507
   3         912              912                507                     507
   4         912              912                507                     507
   5         912              912                507                     507
   6         911              911                506                     506
   7         911              911                506                     506
   8         911              911                506                     506
   9         911              911                506                     506
  10         911              911                506                     506
  11         911              911                506                     506
  12         911              911                506                     506
  13         911              911                506                     506
  14         911              911                506                     506
  15         911              911                506                     506
  16         911              911                506                     506
  17         911              911                506                     506
  18         911              911                506                     506
  19         911              911                506                     506
  20         911              911                506                     506
Total      18225            18225              10125                   10125
 Z-columns:
Process  Num. Cols.  Num. Fine Cols.  Num Weight. Cols.  Num Fine Weight. Cols.
   1         912              912                912                     912
   2         912              912                912                     912
   3         912              912                912                     912
   4         912              912                912                     912
   5         912              912                912                     912
   6         911              911                911                     911
   7         911              911                911                     911
   8         911              911                911                     911
   9         911              911                911                     911
  10         911              911                911                     911
[...]
 * O              39     -0.00089     -0.00306     -0.00356 *
 * O              40      0.00017      0.00012     -0.00409 *
 * O              41      0.00235     -0.00093     -0.00465 *
 * O              42      0.00429     -0.00112     -0.00092 *
 * O              43      0.00068      0.00204     -0.00038 *
 * O              44      0.00061     -0.00133      0.00092 *
 * O              45      0.00193     -0.00312      0.00164 *
 * O              46      0.00156     -0.00259      0.00108 *
 * O              47     -0.00064     -0.00013     -0.00311 *
 * O              48      0.00115     -0.00549      0.00147 *
 * O              49      0.00088      0.00250     -0.00201 *
 * O              50      0.00366     -0.00195     -0.00129 *
 * O              51      0.00223     -0.00290     -0.00324 *
 * O              52      0.00054     -0.00129     -0.00124 *
 * O              53      0.00293      0.00041      0.00034 *
 * O              54      0.00393     -0.00328      0.00104 *
 * O              55     -0.00167     -0.00296      0.00157 *
 * O              56     -0.00455      0.00166      0.00032 *
 * O              57     -0.00176     -0.00101      0.00358 *
 * O              58     -0.00269     -0.00251      0.00172 *
 * O              59     -0.00284      0.00007     -0.00007 *
[...]
 * Al             94     -0.00246      0.00086      0.00189 *
 * Al             95     -0.00014     -0.00157     -0.00212 *
 * Al             96     -0.00207      0.00106      0.00393 *
 * Al             97     -0.00019     -0.00021     -0.00250 *
 * Al             98      0.00102     -0.00197     -0.00293 *
 * Al             99     -0.00073     -0.00305      0.00387 *
 * Al            100     -0.00253     -0.00172     -0.00315 *
 * Al            101     -0.00280     -0.00059     -0.00223 *
 * Al            102      0.00049     -0.00256      0.00188 *
 * Al            103      0.00143      0.00067     -0.00212 *
 * Al            104      0.00015     -0.00231      0.00394 *
 * Al            105      0.00001     -0.00001      0.00351 *
 * Al            106      0.00001     -0.00000     -0.00504 *
 * Al            107      0.00001      0.00000     -0.00489 *
 * Al            108      0.00002     -0.00001      0.00133 *

 Pseudo atomic calculation performed for Li 1s2 2s1

[...]

 Converged in 33 iterations to a total energy of -431.1291 eV

 Pseudo atomic calculation performed for Al 3s2 3p1

 Converged in 20 iterations to a total energy of -105.9172 eV
Charge spilling parameter for spin component 1 = 0.78%

            Orbital Populations
     Ion    Atom   Orbital             Charge
     Li     1      S                    2.008
     Li     1      S                   -0.162
     Li     1      Px                   0.136
     Li     1      Py                   0.136
     Li     1      Pz                   0.069
      O     1      S                    1.836
      O     1      Px                   1.732
      O     1      Py                   1.712
      O     1      Pz                   1.718
      O     2      S                    1.836
      O     2      Px                   1.690
      O     2      Py                   1.753
      O     2      Pz                   1.718
      O     3      S                    1.836
      O     3      Px                   1.744
      O     3      Py                   1.700
      O     3      Pz                   1.718
      O     4      S                    1.836
      O     4      Px                   1.706
      O     4      Py                   1.727
      O     4      Pz                   1.740
      O     5      S                    1.836
      O     5      Px                   1.725
      O     5      Py                   1.708
      O     5      Pz                   1.740
      O     6      S                    1.836
      O     6      Px                   1.719
      O     6      Py                   1.714
      O     6      Pz                   1.740
      O     7      S                    1.833
      O     7      Px                   1.721
      O     7      Py                   1.750
      O     7      Pz                   1.749
      O     8      S                    1.832
      O     8      Px                   1.745
      O     8      Py                   1.727
      O     8      Pz                   1.742
      O     9      S                    1.832
      O     9      Px                   1.743
      O     9      Py                   1.728
      O     9      Pz                   1.743
      O    10      S                    1.832
      O    10      Px                   1.738
      O    10      Py                   1.729
      O    10      Pz                   1.743
      O    11      S                    1.831
      O    11      Px                   1.750
      O    11      Py                   1.719
      O    11      Pz                   1.749
      O    12      S                    1.832
      O    12      Px                   1.722
      O    12      Py                   1.757
      O    12      Pz                   1.746
      O    13      S                    1.833
      O    13      Px                   1.719
      O    13      Py                   1.754
      O    13      Pz                   1.740
      O    14      S                    1.832
      O    14      Px                   1.745
      O    14      Py                   1.729
[...]
     Al   105      Px                   0.305
     Al   105      Py                   0.305
     Al   105      Pz                   0.297
     Al   106      S                    0.516
     Al   106      Px                   0.306
     Al   106      Py                   0.306
     Al   106      Pz                   0.297
     Al   107      S                    0.517
     Al   107      Px                   0.306
     Al   107      Py                   0.306
     Al   107      Pz                   0.298
     Al   108      S                    0.516
     Al   108      Px                   0.305
     Al   108      Py                   0.305
     Al   108      Pz                   0.297
                           Total:    1297.974
The total projected population is 1297.974  -0.000

     Atomic Populations (Mulliken)
Species          Ion     s      p      d      f     Total  Charge (e)
  Li              1     1.85   0.34   0.00   0.00   2.19     0.81
  O               1     1.84   5.16   0.00   0.00   7.00    -1.00
  O               2     1.84   5.16   0.00   0.00   7.00    -1.00
  O               3     1.84   5.16   0.00   0.00   7.00    -1.00
  O               4     1.84   5.17   0.00   0.00   7.01    -1.01
  O               5     1.84   5.17   0.00   0.00   7.01    -1.01
  O               6     1.84   5.17   0.00   0.00   7.01    -1.01
  O               7     1.83   5.22   0.00   0.00   7.05    -1.05
  O               8     1.83   5.21   0.00   0.00   7.05    -1.05
  O               9     1.83   5.21   0.00   0.00   7.05    -1.05
  O              10     1.83   5.21   0.00   0.00   7.04    -1.04
  O              11     1.83   5.22   0.00   0.00   7.05    -1.05
  O              12     1.83   5.22   0.00   0.00   7.06    -1.06
  O              13     1.83   5.21   0.00   0.00   7.05    -1.05
  O              14     1.83   5.21   0.00   0.00   7.05    -1.05
  O              15     1.83   5.22   0.00   0.00   7.05    -1.05
  O              16     1.83   5.22   0.00   0.00   7.05    -1.05
  O              17     1.83   5.22   0.00   0.00   7.05    -1.05
  O              18     1.83   5.21   0.00   0.00   7.05    -1.05
  O              19     1.83   5.21   0.00   0.00   7.05    -1.05
  O              20     1.83   5.22   0.00   0.00   7.05    -1.05
  O              21     1.83   5.21   0.00   0.00   7.05    -1.05
  O              22     1.83   5.22   0.00   0.00   7.06    -1.06
  O              23     1.83   5.21   0.00   0.00   7.04    -1.04
  O              24     1.83   5.22   0.00   0.00   7.05    -1.05
  O              25     1.83   5.22   0.00   0.00   7.05    -1.05
  O              26     1.83   5.22   0.00   0.00   7.05    -1.05
  O              27     1.83   5.21   0.00   0.00   7.05    -1.05
  O              28     1.83   5.22   0.00   0.00   7.05    -1.05
  O              29     1.83   5.21   0.00   0.00   7.05    -1.05
  O              30     1.83   5.22   0.00   0.00   7.05    -1.05
  O              31     1.83   5.21   0.00   0.00   7.05    -1.05
  O              32     1.83   5.22   0.00   0.00   7.05    -1.05
  O              33     1.83   5.21   0.00   0.00   7.04    -1.04
  O              34     1.83   5.21   0.00   0.00   7.04    -1.04
  O              35     1.83   5.21   0.00   0.00   7.05    -1.05
  O              36     1.83   5.21   0.00   0.00   7.04    -1.04
  O              37     1.83   5.22   0.00   0.00   7.05    -1.05
  O              38     1.83   5.21   0.00   0.00   7.05    -1.05
  O              39     1.83   5.21   0.00   0.00   7.05    -1.05
  O              40     1.83   5.22   0.00   0.00   7.05    -1.05
  O              41     1.83   5.22   0.00   0.00   7.05    -1.05
  O              42     1.83   5.22   0.00   0.00   7.05    -1.05
  O              43     1.83   5.21   0.00   0.00   7.04    -1.04
  O              44     1.83   5.21   0.00   0.00   7.05    -1.05
  O              45     1.83   5.21   0.00   0.00   7.05    -1.05
  O              46     1.83   5.22   0.00   0.00   7.05    -1.05
  O              47     1.83   5.21   0.00   0.00   7.05    -1.05
  O              48     1.83   5.21   0.00   0.00   7.05    -1.05
  O              49     1.83   5.22   0.00   0.00   7.05    -1.05
  O              50     1.83   5.22   0.00   0.00   7.05    -1.05
  O              51     1.83   5.22   0.00   0.00   7.05    -1.05
  O              52     1.83   5.22   0.00   0.00   7.05    -1.05
  O              53     1.83   5.22   0.00   0.00   7.05    -1.05
  O              54     1.83   5.21   0.00   0.00   7.05    -1.05
  O              55     1.83   5.21   0.00   0.00   7.05    -1.05
  O              56     1.83   5.22   0.00   0.00   7.05    -1.05
  O              57     1.83   5.22   0.00   0.00   7.05    -1.05
  O              58     1.83   5.22   0.00   0.00   7.05    -1.05
  O              59     1.83   5.22   0.00   0.00   7.06    -1.06
[...]
  Al             94     0.52   0.90   0.00   0.00   1.42     1.58
  Al             95     0.52   0.91   0.00   0.00   1.43     1.57
  Al             96     0.52   0.91   0.00   0.00   1.42     1.58
  Al             97     0.52   0.91   0.00   0.00   1.43     1.57
  Al             98     0.52   0.91   0.00   0.00   1.43     1.57
  Al             99     0.52   0.93   0.00   0.00   1.45     1.55
  Al            100     0.52   0.91   0.00   0.00   1.43     1.57
  Al            101     0.52   0.91   0.00   0.00   1.42     1.58
  Al            102     0.52   0.90   0.00   0.00   1.42     1.58
  Al            103     0.52   0.91   0.00   0.00   1.43     1.57
  Al            104     0.52   0.91   0.00   0.00   1.42     1.58
  Al            105     0.52   0.91   0.00   0.00   1.42     1.58
  Al            106     0.52   0.91   0.00   0.00   1.42     1.58
  Al            107     0.52   0.91   0.00   0.00   1.43     1.57
  Al            108     0.52   0.91   0.00   0.00   1.42     1.58

                 Bond                   Population      Length (A)
             O 110 -- Al 74                  0.46        1.79921
             O 15  -- Al 10                  0.46        1.79921
             O 37  -- Al 26                  0.46        1.79921
             O 110 -- Al 99                  0.43        1.80102
             O 37  -- Al 35                  0.43        1.80102
             O 15  -- Al 83                  0.43        1.80102
             O 131 -- Al 13                  0.41        1.81260
             O 46  -- Al 5                   0.41        1.81261
             O 72  -- Al 37                  0.41        1.81261
             O 20  -- Al 4                   0.42        1.81604
             O 57  -- Al 4                   0.42        1.81604
             O 7   -- Al 4                   0.42        1.81604
             O 22  -- Al 16                  0.40        1.82391
             O 59  -- Al 40                  0.40        1.82391
             O 12  -- Al 8                   0.40        1.82391
             O 93  -- Al 27                  0.40        1.82793
             O 32  -- Al 11                  0.40        1.82793
             O 115 -- Al 75                  0.40        1.82793
             O 11  -- Al 3                   0.37        1.82997
             O 24  -- Al 3                   0.37        1.82997
             O 58  -- Al 3                   0.37        1.82997
              Li 1 -- O 15                   0.17        1.83193
              Li 1 -- O 37                   0.17        1.83194
              Li 1 -- O 110                  0.17        1.83194
             O 6   -- Al 1                   0.42        1.83483
             O 4   -- Al 1                   0.42        1.83483
             O 5   -- Al 1                   0.42        1.83483
             O 40  -- Al 28                  0.39        1.84403
             O 18  -- Al 12                  0.39        1.84403
             O 113 -- Al 76                  0.39        1.84403
             O 158 -- Al 95                  0.39        1.84814
             O 159 -- Al 71                  0.39        1.84814
             O 157 -- Al 103                 0.39        1.84814
             O 94  -- Al 37                  0.41        1.84845
             O 119 -- Al 5                   0.41        1.84845
             O 36  -- Al 13                  0.41        1.84845
             O 146 -- Al 87                  0.38        1.84856
             O 49  -- Al 31                  0.38        1.84856
             O 123 -- Al 47                  0.38        1.84856
             O 28  -- Al 20                  0.38        1.84926
             O 66  -- Al 44                  0.38        1.84927
             O 77  -- Al 52                  0.38        1.84927
             O 60  -- Al 40                  0.41        1.84936
             O 10  -- Al 8                   0.41        1.84936
             O 23  -- Al 16                  0.41        1.84936
             O 82  -- Al 65                  0.38        1.85045
             O 83  -- Al 89                  0.38        1.85045
             O 84  -- Al 57                  0.38        1.85045
             O 16  -- Al 21                  0.39        1.85053
             O 41  -- Al 61                  0.39        1.85053
             O 114 -- Al 77                  0.39        1.85053
             O 86  -- Al 47                  0.38        1.85344
             O 99  -- Al 31                  0.38        1.85344
             O 133 -- Al 87                  0.38        1.85344
             O 50  -- Al 23                  0.38        1.85365
             O 147 -- Al 63                  0.38        1.85365
             O 121 -- Al 79                  0.38        1.85365
             O 155 -- Al 29                  0.38        1.85415
             O 106 -- Al 45                  0.38        1.85415
             O 144 -- Al 85                  0.38        1.85415
[...]
             O 20  -- O 57                  -0.03        2.89812
             O 7   -- O 57                  -0.03        2.89812
             O 7   -- O 20                  -0.03        2.89812
             O 33  -- O 158                 -0.03        2.90434
             O 91  -- O 159                 -0.03        2.90434
             O 116 -- O 157                 -0.03        2.90434
             O 4   -- O 131                 -0.03        2.90465
             O 5   -- O 72                  -0.03        2.90465
             O 6   -- O 46                  -0.03        2.90465
             O 16  -- O 18                  -0.03        2.91604
             O 113 -- O 114                 -0.03        2.91604
             O 40  -- O 41                  -0.03        2.91604
             O 2   -- O 93                  -0.03        2.95862
             O 3   -- O 115                 -0.03        2.95862
             O 1   -- O 32                  -0.03        2.95862

Writing analysis data to nmr.castep_bin

Writing model to nmr.check

 A BibTeX formatted list of references used in this run has been written to
 nmr.bib

Initialisation time =     14.66 s
Calculation time    =   3376.06 s
Finalisation time   =      9.67 s
Total time          =   3400.38 s

Overall parallel efficiency rating: Satisfactory (68%)

Data was distributed by:-
G-vector (20-way); efficiency rating: Satisfactory (69%)
k-point (4-way); efficiency rating: Excellent (98%)

Parallel notes:
1) SMP optimisations were used (num_proc_in_smp=0).
2) k-points were fully distributed.