 Run started: Fri, 26 Nov 2021 10:44:32 +0000
 |           N   N    M   M    RRRR                |
 |           NN  N    MM MM    R   R               |
 |           N N N    M M M    RRRR                |
 |           N  NN    M   M    R  R                |
 |           N   N    M   M    R   R               |
 | Welcome to Materials Studio CASTEP-NMR          |
 | Authors:                                        |
 | J.R. Yates, C.J. Pickard, F. Mauri              |
 | Contributors:                                   |
 | T.F.G. Green, S.A. Joyce, R.T. Strong,          |
 | B-C. Shih                                       |
 | Copyright (c) 2004 - 2020                       |
 | Please cite the appropriate publications in all |
 | work arising from your use of CASTEP NMR.       |
 | For NMR Shielding Tensors cite:                 |
 |    "All-electron magnetic response with         |
 |    pseudopotentials: NMR chemical shifts",      |
 |    C. J. Pickard, F. Mauri;                     |
 |    Physical Review B63 245101 (2001), and       |
 |    "Calculation of NMR Chemical Shifts          |
 |    for extended systems using                   |
 |    Ultrasoft Pseudopotentials",                 |
 |    J. R. Yates, C. J. Pickard and F. Mauri      |
 |    Physical Review B76 024401 (2007)            |
 | For Electric Field Gradients cite:              |
 |   "Accurate First Principles Prediction of 17O  |
 |    NMR Parameters in SiO2: Assignment of the    |
 |    Zeolite Ferrierite Spectrum"                 |
 |    M. Profeta, F. Mauri and C. J. Pickard       |
 |    J. Amer. Chem. Soc. 125 541 (2003)           |
 | For Spin-Spin (J) Couplings cite:               |
 |   "A first principles theory of NMR J-coupling  |
 |   in solid-state systems"                       |
 |   S.A. Joyce, J.R. Yates, C.J. Pickard, F. Mauri|
 |   J. Chem. Phys. 127 204107 (2007)              |
 |   "Relativistic NMR J-coupling with ultrasoft   |
 |   pseudopotentials and the zeroth-order regular |
 |   approximation"                                |
 |   T.F.G. Green and J.R. Yates                   |
 |   J. Chem. Phys. 140 234106 (2014)              |

 Atomic calculation performed for Li: 1s2 2s1

 Converged in 48 iterations to an ae energy of -201.033 eV

   | Pseudopotential Report - Date of generation 26-11-2021   |
   | Element: Li Ionic charge:  3.00 Level of theory: PBESOL  |
   | Atomic Solver: Koelling-Harmon                           |
   |               Reference Electronic Structure             |
   |         Orbital         Occupation         Energy        |
   |            1s              2.000           -1.888        |
   |            2s              1.000           -0.104        |
   |                 Pseudopotential Definition               |
   |        Beta     l      e      Rc     scheme   norm       |
   |          1      0   -1.888   1.001     qc      0         |
   |          2      0   -0.104   1.001     qc      0         |
   |          3      0    0.250   1.001     qc      0         |
   |         loc     1    0.000   1.001     pn      0         |
   | Augmentation charge Rinner = 0.699                       |
   | No partial core correction                               |
   | "1|1.0|14|16|18|10U:20(qc=7)"                            |
   |      Author: Chris J. Pickard, Cambridge University      |

 Atomic calculation performed for O: 1s2 2s2 2p4

[...]

   | Pseudopotential Report - Date of generation 26-11-2021   |
   | Element: O Ionic charge:  6.00 Level of theory: PBESOL   |
   | Atomic Solver: Koelling-Harmon                           |
   |               Reference Electronic Structure             |
   |         Orbital         Occupation         Energy        |
   |            2s              2.000           -0.875        |
   |            2p              4.000           -0.330        |
   |                 Pseudopotential Definition               |
   |        Beta     l      e      Rc     scheme   norm       |
   |          1      0   -0.875   1.100     qc      0         |
   |          2      0    0.250   1.100     qc      0         |
   |          3      1   -0.330   1.100     qc      0         |
   |          4      1    0.250   1.100     qc      0         |
   |         loc     2    0.000   1.100     pn      0         |
   | Augmentation charge Rinner = 0.769                       |
   | Partial core correction Rc = 0.769                       |
   | "2|1.1|17|20|23|20:21(qc=8)"                             |
   |      Author: Chris J. Pickard, Cambridge University      |

 Atomic calculation performed for Al: 1s2 2s2 2p6 3s2 3p1

 Converged in 55 iterations to an ae energy of -6590.489 eV

   | Pseudopotential Report - Date of generation 26-11-2021   |
   | Element: Al Ionic charge:  3.00 Level of theory: PBESOL  |
   | Atomic Solver: Koelling-Harmon                           |
   |               Reference Electronic Structure             |
   |         Orbital         Occupation         Energy        |
   |            3s              2.000           -0.284        |
   |            3p              1.000           -0.099        |
   |                 Pseudopotential Definition               |
   |        Beta     l      e      Rc     scheme   norm       |
   |          1      0   -0.284   2.192     qc      0         |
   |          2      0    0.250   2.192     qc      0         |
   |          3      1   -0.099   2.192     qc      0         |
   |          4      1    0.250   2.192     qc      0         |
   |          5      2    0.000   2.000     qc      0         |
   |          6      2    0.250   2.000     qc      0         |
   |         loc     3    0.000   2.192     pn      0         |
   | Augmentation charge Rinner = 1.398                       |
   | Partial core correction Rc = 1.398                       |
   | "3|2.2|2.2|1.4|4|5|5|30:31:32U2U2"                       |
   |      Author: Chris J. Pickard, Cambridge University      |

 Pseudo atomic calculation performed for Li 1s2 2s1

 Converged in 22 iterations to a total energy of -198.8875 eV

 Pseudo atomic calculation performed for O 2s2 2p4

[...]

 Converged in 20 iterations to a total energy of -105.9172 eV
 Calculation parallelised over 40 processes.
 Data is distributed by G-vector(40-way)

 ************************************ Title ************************************

 ***************************** General Parameters ******************************

 output verbosity                               : normal  (1)
 write checkpoint data to                       : al2o3_sc-3x3x3_site-0_dir-2_disp_0.17678.check
 type of calculation                            : Magnetic Resonance
 stress calculation                             : off
 density difference calculation                 : off
 electron localisation func (ELF) calculation   : off
 Hirshfeld analysis                             : off
 molecular orbital projected DOS                : off
 deltaSCF calculation                           : off
 unlimited duration calculation
 timing information                             : on
 write extra output files                       : on
 write final potential to formatted file        : off
 write final density to formatted file          : off
 write BibTeX reference list                    : on
 write OTFG pseudopotential files               : on
 write electrostatic potential file             : on
 write bands file                               : on
 checkpoint writing                             : both castep_bin and check files

 output         length unit                     : A
 output           mass unit                     : amu
 output           time unit                     : ps
 output         charge unit                     : e
 output           spin unit                     : hbar/2
 output         energy unit                     : eV
 output          force unit                     : eV/A
 output       velocity unit                     : A/ps
 output       pressure unit                     : GPa
 output     inv_length unit                     : 1/A
 output      frequency unit                     : cm-1
 output force constant unit                     : eV/A**2
 output         volume unit                     : A**3
 output   IR intensity unit                     : (D/A)**2/amu
 output         dipole unit                     : D
 output         efield unit                     : eV/A/e
 output        entropy unit                     : J/mol/K
 output    efield chi2 unit                     : pm/V

 wavefunctions paging                           : none
 random number generator seed                   : randomised (104432796)
 data distribution                              : optimal for this architecture
 optimization strategy                          : maximize speed(+++)

 *********************** Exchange-Correlation Parameters ***********************

 using functional                               : PBE for solids (2008)
 relativistic treatment                         : Koelling-Harmon
 DFT+D: Semi-empirical dispersion correction    : off

 ************************* Pseudopotential Parameters **************************

 pseudopotential representation                 : reciprocal space
 <beta|phi> representation                      : reciprocal space
 spin-orbit coupling                            : off

 **************************** Basis Set Parameters *****************************

 plane wave basis set cut-off                   :   900.0000   eV
 size of standard grid                          :     1.7500
 size of   fine   gmax                          :    26.8966   1/A
 finite basis set correction                    : none

 **************************** Electronic Parameters ****************************

 number of  electrons                           :  1298.
 net charge of system                           : +1.000
 treating system as non-spin-polarized
 number of bands                                :        779

 ********************* Electronic Minimization Parameters **********************

 Method: Treating system as metallic with density mixing treatment of electrons,
         and number of  SD  steps               :          1
         and number of  CG  steps               :          4

 total energy / atom convergence tol.           : 0.1000E-07   eV
 eigen-energy convergence tolerance             : 0.4176E-08   eV
 max force / atom convergence tol.              : ignored
 convergence tolerance window                   :          3   cycles
 max. number of SCF cycles                      :         30
 number of fixed-spin iterations                :         10
 smearing scheme                                : Gaussian
 smearing width                                 : 0.2000       eV
 Fermi energy convergence tolerance             : 0.2721E-13   eV
 periodic dipole correction                     : NONE

 ************************** Density Mixing Parameters **************************

 density-mixing scheme                          : Broyden
 max. length of mixing history                  :         20
 charge density mixing amplitude                : 0.8000
[...]
 * O              37      0.01929      0.00784     -0.03470 *
 * O              38      0.01047     -0.00453     -0.00852 *
 * O              39      0.00846     -0.01759     -0.01834 *
 * O              40      0.00340     -0.00337     -0.02231 *
 * O              41      0.00586     -0.00275     -0.01120 *
 * O              42      0.00654     -0.00268     -0.00845 *
 * O              43     -0.01863      0.01606      0.03670 *
 * O              44     -0.00742      0.00225      0.00510 *
 * O              45     -0.00120      0.00413      0.00659 *
 * O              46     -0.00252     -0.01628      0.00906 *
 * O              47      0.03398     -0.01809      0.01406 *
 * O              48      0.00030     -0.00301      0.00091 *
 * O              49      0.00337      0.00413     -0.00803 *
 * O              50     -0.00011     -0.00183     -0.00711 *
 * O              51      0.00021      0.00045     -0.01184 *
 * O              52      0.00030      0.00096     -0.00178 *
 * O              53     -0.00087      0.00015      0.00266 *
 * O              54      0.00127     -0.00381     -0.00386 *
 * O              55     -0.00297     -0.00535     -0.00669 *
 * O              56     -0.00201     -0.00374     -0.00515 *
 * O              57     -0.01064     -0.00013     -0.00815 *
 * O              58     -0.00942     -0.02275     -0.03966 *
 * O              59     -0.00325     -0.00811      0.00081 *
[...]
 * Al             94      0.01132     -0.00647      0.00257 *
 * Al             95     -0.00357     -0.00427     -0.01841 *
 * Al             96      0.00582     -0.00387      0.00680 *
 * Al             97     -0.00060      0.00026     -0.00954 *
 * Al             98      0.00029      0.01198      0.01513 *
 * Al             99     -0.00101      0.02758      0.02159 *
 * Al            100      0.00068      0.00056     -0.00382 *
 * Al            101     -0.00005      0.00555      0.00098 *
 * Al            102     -0.00007      0.01299      0.00248 *
 * Al            103      0.00549     -0.00101     -0.01835 *
 * Al            104      0.00021      0.00691      0.00685 *
 * Al            105     -0.00003      0.00007      0.00685 *
 * Al            106      0.00004      0.00000     -0.00571 *
 * Al            107     -0.00004      0.00000      0.00470 *
 * Al            108     -0.00004     -0.00004      0.00405 *

 Pseudo atomic calculation performed for Li 1s2 2s1

[...]

 Converged in 33 iterations to a total energy of -431.1291 eV

 Pseudo atomic calculation performed for Al 3s2 3p1

 Converged in 20 iterations to a total energy of -105.9172 eV
Charge spilling parameter for spin component 1 = 0.77%

            Orbital Populations
     Ion    Atom   Orbital             Charge
     Li     1      S                    2.015
     Li     1      S                   -0.188
     Li     1      Px                   0.144
     Li     1      Py                   0.144
     Li     1      Pz                   0.079
      O     1      S                    1.830
      O     1      Px                   1.717
      O     1      Py                   1.727
      O     1      Pz                   1.728
      O     2      S                    1.831
      O     2      Px                   1.711
      O     2      Py                   1.734
      O     2      Pz                   1.728
      O     3      S                    1.831
      O     3      Px                   1.739
      O     3      Py                   1.706
      O     3      Pz                   1.728
      O     4      S                    1.833
      O     4      Px                   1.721
      O     4      Py                   1.731
      O     4      Pz                   1.721
      O     5      S                    1.833
      O     5      Px                   1.738
      O     5      Py                   1.713
      O     5      Pz                   1.721
      O     6      S                    1.833
      O     6      Px                   1.718
      O     6      Py                   1.734
      O     6      Pz                   1.722
      O     7      S                    1.832
      O     7      Px                   1.720
      O     7      Py                   1.751
      O     7      Pz                   1.747
      O     8      S                    1.832
      O     8      Px                   1.745
      O     8      Py                   1.727
      O     8      Pz                   1.742
      O     9      S                    1.832
      O     9      Px                   1.745
      O     9      Py                   1.728
      O     9      Pz                   1.742
      O    10      S                    1.832
      O    10      Px                   1.744
      O    10      Py                   1.727
      O    10      Pz                   1.742
      O    11      S                    1.831
      O    11      Px                   1.748
      O    11      Py                   1.721
      O    11      Pz                   1.745
      O    12      S                    1.832
      O    12      Px                   1.719
      O    12      Py                   1.754
      O    12      Pz                   1.743
      O    13      S                    1.832
      O    13      Px                   1.719
      O    13      Py                   1.754
      O    13      Pz                   1.743
      O    14      S                    1.832
      O    14      Px                   1.744
      O    14      Py                   1.727
[...]
     Al   105      Px                   0.305
     Al   105      Py                   0.305
     Al   105      Pz                   0.297
     Al   106      S                    0.516
     Al   106      Px                   0.305
     Al   106      Py                   0.305
     Al   106      Pz                   0.297
     Al   107      S                    0.517
     Al   107      Px                   0.306
     Al   107      Py                   0.306
     Al   107      Pz                   0.301
     Al   108      S                    0.517
     Al   108      Px                   0.305
     Al   108      Py                   0.305
     Al   108      Pz                   0.297
                           Total:    1297.976

     Atomic Populations (Mulliken)
Species          Ion     s      p      d      f     Total  Charge (e)
  Li              1     1.83   0.37   0.00   0.00   2.19     0.81
  O               1     1.83   5.17   0.00   0.00   7.00    -1.00
  O               2     1.83   5.17   0.00   0.00   7.00    -1.00
  O               3     1.83   5.17   0.00   0.00   7.00    -1.00
  O               4     1.83   5.17   0.00   0.00   7.01    -1.01
  O               5     1.83   5.17   0.00   0.00   7.01    -1.01
  O               6     1.83   5.17   0.00   0.00   7.01    -1.01
  O               7     1.83   5.22   0.00   0.00   7.05    -1.05
  O               8     1.83   5.21   0.00   0.00   7.05    -1.05
  O               9     1.83   5.21   0.00   0.00   7.05    -1.05
  O              10     1.83   5.21   0.00   0.00   7.05    -1.05
  O              11     1.83   5.21   0.00   0.00   7.04    -1.04
  O              12     1.83   5.22   0.00   0.00   7.05    -1.05
  O              13     1.83   5.22   0.00   0.00   7.05    -1.05
  O              14     1.83   5.21   0.00   0.00   7.05    -1.05
  O              15     1.83   5.22   0.00   0.00   7.05    -1.05
  O              16     1.83   5.22   0.00   0.00   7.05    -1.05
  O              17     1.83   5.21   0.00   0.00   7.05    -1.05
  O              18     1.83   5.22   0.00   0.00   7.05    -1.05
  O              19     1.83   5.22   0.00   0.00   7.05    -1.05
  O              20     1.83   5.22   0.00   0.00   7.05    -1.05
  O              21     1.83   5.22   0.00   0.00   7.05    -1.05
  O              22     1.83   5.22   0.00   0.00   7.05    -1.05
  O              23     1.83   5.21   0.00   0.00   7.05    -1.05
  O              24     1.83   5.21   0.00   0.00   7.04    -1.04
  O              25     1.83   5.22   0.00   0.00   7.05    -1.05
  O              26     1.83   5.22   0.00   0.00   7.05    -1.05
  O              27     1.83   5.22   0.00   0.00   7.05    -1.05
  O              28     1.83   5.22   0.00   0.00   7.05    -1.05
  O              29     1.83   5.21   0.00   0.00   7.05    -1.05
  O              30     1.83   5.22   0.00   0.00   7.05    -1.05
  O              31     1.83   5.21   0.00   0.00   7.05    -1.05
  O              32     1.83   5.21   0.00   0.00   7.05    -1.05
  O              33     1.83   5.21   0.00   0.00   7.05    -1.05
  O              34     1.83   5.21   0.00   0.00   7.05    -1.05
  O              35     1.83   5.21   0.00   0.00   7.05    -1.05
  O              36     1.83   5.21   0.00   0.00   7.04    -1.04
  O              37     1.83   5.22   0.00   0.00   7.05    -1.05
  O              38     1.83   5.22   0.00   0.00   7.05    -1.05
  O              39     1.83   5.21   0.00   0.00   7.05    -1.05
  O              40     1.83   5.22   0.00   0.00   7.05    -1.05
  O              41     1.83   5.21   0.00   0.00   7.05    -1.05
  O              42     1.83   5.21   0.00   0.00   7.05    -1.05
  O              43     1.83   5.21   0.00   0.00   7.04    -1.04
  O              44     1.83   5.21   0.00   0.00   7.05    -1.05
  O              45     1.83   5.21   0.00   0.00   7.05    -1.05
  O              46     1.83   5.21   0.00   0.00   7.05    -1.05
  O              47     1.83   5.21   0.00   0.00   7.05    -1.05
  O              48     1.83   5.22   0.00   0.00   7.05    -1.05
  O              49     1.83   5.22   0.00   0.00   7.05    -1.05
  O              50     1.83   5.22   0.00   0.00   7.05    -1.05
  O              51     1.83   5.21   0.00   0.00   7.05    -1.05
  O              52     1.83   5.22   0.00   0.00   7.05    -1.05
  O              53     1.83   5.22   0.00   0.00   7.05    -1.05
  O              54     1.83   5.21   0.00   0.00   7.05    -1.05
  O              55     1.83   5.21   0.00   0.00   7.05    -1.05
  O              56     1.83   5.22   0.00   0.00   7.05    -1.05
  O              57     1.83   5.22   0.00   0.00   7.05    -1.05
  O              58     1.83   5.21   0.00   0.00   7.04    -1.04
  O              59     1.83   5.22   0.00   0.00   7.05    -1.05
[...]
  Al             94     0.52   0.91   0.00   0.00   1.42     1.58
  Al             95     0.52   0.91   0.00   0.00   1.43     1.57
  Al             96     0.52   0.91   0.00   0.00   1.42     1.58
  Al             97     0.52   0.91   0.00   0.00   1.42     1.58
  Al             98     0.52   0.91   0.00   0.00   1.42     1.58
  Al             99     0.52   0.91   0.00   0.00   1.42     1.58
  Al            100     0.52   0.91   0.00   0.00   1.43     1.57
  Al            101     0.52   0.91   0.00   0.00   1.42     1.58
  Al            102     0.52   0.91   0.00   0.00   1.42     1.58
  Al            103     0.52   0.91   0.00   0.00   1.43     1.57
  Al            104     0.52   0.91   0.00   0.00   1.42     1.58
  Al            105     0.52   0.91   0.00   0.00   1.42     1.58
  Al            106     0.52   0.91   0.00   0.00   1.42     1.58
  Al            107     0.52   0.91   0.00   0.00   1.43     1.57
  Al            108     0.52   0.91   0.00   0.00   1.42     1.58

                 Bond                   Population      Length (A)
             O 57  -- Al 3                   0.41        1.83205
             O 20  -- Al 3                   0.41        1.83205
             O 7   -- Al 3                   0.41        1.83205
             O 113 -- Al 1                   0.40        1.83206
             O 18  -- Al 1                   0.40        1.83206
             O 40  -- Al 1                   0.40        1.83206
             O 93  -- Al 27                  0.39        1.84186
             O 46  -- Al 5                   0.38        1.84186
             O 72  -- Al 37                  0.38        1.84186
             O 115 -- Al 75                  0.39        1.84187
             O 32  -- Al 11                  0.39        1.84188
             O 131 -- Al 13                  0.38        1.84188
              Li 1 -- O 3                    0.06        1.84843
             O 38  -- Al 26                  0.38        1.84844
              Li 1 -- O 1                    0.06        1.84844
             O 59  -- Al 40                  0.38        1.84844
             O 12  -- Al 8                   0.38        1.84845
             O 13  -- Al 10                  0.38        1.84845
             O 22  -- Al 16                  0.38        1.84845
             O 111 -- Al 74                  0.38        1.84845
              Li 1 -- O 2                    0.06        1.84847
             O 66  -- Al 44                  0.38        1.85368
             O 28  -- Al 20                  0.38        1.85368
             O 50  -- Al 34                  0.38        1.85368
             O 77  -- Al 52                  0.38        1.85368
             O 147 -- Al 98                  0.38        1.85368
             O 121 -- Al 82                  0.38        1.85369
             O 109 -- Al 74                  0.38        1.85588
             O 14  -- Al 10                  0.38        1.85588
             O 60  -- Al 40                  0.38        1.85589
             O 23  -- Al 16                  0.38        1.85589
             O 39  -- Al 26                  0.38        1.85589
             O 10  -- Al 8                   0.38        1.85590
             O 76  -- Al 61                  0.38        1.85617
             O 65  -- Al 77                  0.38        1.85617
             O 30  -- Al 21                  0.38        1.85618
             O 146 -- Al 87                  0.38        1.85618
             O 123 -- Al 47                  0.38        1.85618
             O 49  -- Al 31                  0.38        1.85618
             O 94  -- Al 37                  0.42        1.85639
             O 119 -- Al 5                   0.42        1.85639
             O 128 -- Al 75                  0.42        1.85640
             O 43  -- Al 27                  0.42        1.85640
             O 69  -- Al 11                  0.42        1.85641
             O 36  -- Al 13                  0.42        1.85641
             O 159 -- Al 71                  0.38        1.85661
             O 83  -- Al 89                  0.38        1.85662
             O 158 -- Al 95                  0.38        1.85662
             O 82  -- Al 65                  0.38        1.85662
             O 84  -- Al 57                  0.38        1.85662
             O 157 -- Al 103                 0.38        1.85662
             O 89  -- Al 60                  0.38        1.85699
             O 139 -- Al 94                  0.38        1.85699
             O 104 -- Al 70                  0.38        1.85699
             O 136 -- Al 92                  0.38        1.85699
             O 102 -- Al 68                  0.38        1.85699
             O 153 -- Al 102                 0.38        1.85699
             O 77  -- Al 85                  0.38        1.85779
             O 66  -- Al 45                  0.38        1.85779
             O 121 -- Al 79                  0.38        1.85779
[...]
             O 7   -- O 57                  -0.04        2.89039
             O 40  -- O 113                 -0.04        2.89039
             O 7   -- O 20                  -0.04        2.89039
             O 83  -- O 132                 -0.04        2.89130
             O 47  -- O 82                  -0.04        2.89130
             O 33  -- O 158                 -0.04        2.89130
             O 91  -- O 159                 -0.04        2.89130
             O 70  -- O 84                  -0.04        2.89130
             O 116 -- O 157                 -0.04        2.89130
             O 2   -- O 93                  -0.03        2.91111
             O 6   -- O 46                  -0.03        2.91112
             O 5   -- O 72                  -0.03        2.91113
             O 3   -- O 115                 -0.03        2.91113
             O 1   -- O 32                  -0.03        2.91113
             O 4   -- O 131                 -0.03        2.91115

Writing analysis data to al2o3_sc-3x3x3_site-0_dir-2_disp_0.17678.castep_bin

Writing model to al2o3_sc-3x3x3_site-0_dir-2_disp_0.17678.check

 A BibTeX formatted list of references used in this run has been written to
 al2o3_sc-3x3x3_site-0_dir-2_disp_0.17678.bib

Initialisation time =     10.40 s
Calculation time    =   1760.89 s
Finalisation time   =      2.74 s
Total time          =   1774.03 s

Overall parallel efficiency rating: Good (72%)

Data was distributed by:-
G-vector (40-way); efficiency rating: Good (72%)